% seed = 4693488

mint = 61;
% maxt = 215;

nActs = 42;
dur = [0,5,3,8,8,2,10,3,2,4,8,1,5,10,1,1,7,4,1,8,9,4,5,9,5,6,10,4,9,6,3,9,2,5,2,8,1,10,10,3,4,0];

nSkills = 4;
sreq = [| 0,0,0,0,
	| 3,0,5,0,
	| 0,0,4,3,
	| 0,0,5,6,
	| 0,0,1,7,
	| 0,5,0,5,
	| 5,0,0,3,
	| 7,0,5,0,
	| 5,0,0,7,
	| 0,2,4,0,
	| 0,4,0,6,
	| 3,0,0,4,
	| 0,5,7,0,
	| 2,7,0,0,
	| 4,0,2,0,
	| 1,2,0,0,
	| 5,0,3,0,
	| 4,4,0,0,
	| 7,0,5,0,
	| 0,5,0,3,
	| 0,4,0,6,
	| 6,0,4,0,
	| 0,0,4,5,
	| 3,0,5,0,
	| 3,0,0,2,
	| 0,0,4,3,
	| 4,0,6,0,
	| 3,3,0,0,
	| 4,0,0,3,
	| 0,4,0,2,
	| 0,0,4,4,
	| 5,0,4,0,
	| 0,2,0,4,
	| 0,5,0,1,
	| 0,1,0,6,
	| 3,0,0,2,
	| 0,4,2,0,
	| 0,0,2,3,
	| 7,0,0,6,
	| 0,0,3,3,
	| 0,2,4,0,
	| 0,0,0,0, |];

nResources = 20;
mastery = [| true,false,true,true,
	| true,false,false,false,
	| false,true,false,false,
	| false,true,false,true,
	| true,false,true,true,
	| false,false,true,true,
	| false,false,true,false,
	| false,false,true,false,
	| true,true,false,true,
	| true,true,true,false,
	| true,true,true,false,
	| false,true,false,false,
	| true,true,false,false,
	| false,false,true,true,
	| false,false,true,false,
	| false,false,true,false,
	| false,true,true,false,
	| true,false,true,true,
	| true,false,false,true,
	| false,true,false,true, |];

nPrecs = 73;
pred = [1,1,1,2,2,2,3,3,4,4,4,5,5,5,6,6,6,7,7,7,8,8,8,9,9,10,11,11,11,12,13,14,15,15,16,16,17,17,18,18,19,19,19,20,21,21,22,22,23,23,24,25,26,27,27,27,28,29,29,30,31,32,33,33,34,35,36,37,38,38,39,40,41];
succ = [2,3,4,5,6,7,33,29,26,20,8,18,11,19,17,15,32,9,12,22,25,12,13,10,39,14,34,13,16,27,21,30,26,36,30,31,20,24,25,33,26,21,23,23,35,29,33,28,28,31,25,28,40,41,34,37,30,36,40,35,37,39,41,35,38,37,41,38,39,40,42,42,42];

nUnrels = 450;
unpred = [2,2,2,3,3,3,3,3,3,3,3,3,3,3,3,3,3,3,3,3,3,3,3,3,3,3,3,3,3,3,3,3,4,4,4,4,4,4,4,4,4,4,4,4,4,4,4,4,5,5,5,5,5,5,5,5,5,5,5,5,5,5,6,6,6,6,6,6,6,6,6,6,6,6,6,6,6,6,6,7,7,7,7,7,7,7,7,7,7,7,7,7,7,7,7,7,7,8,8,8,8,8,8,8,8,8,8,8,8,8,8,8,8,8,9,9,9,9,9,9,9,9,9,9,9,9,9,9,9,9,9,9,9,9,9,9,9,9,10,10,10,10,10,10,10,10,10,10,10,10,10,10,10,10,10,10,10,10,10,10,10,10,11,11,11,11,11,11,11,11,11,11,11,11,11,11,11,11,12,12,12,12,12,12,12,12,12,12,12,12,12,12,12,12,12,12,12,12,12,12,13,13,13,13,13,13,13,13,13,13,13,13,13,13,13,13,13,13,13,14,14,14,14,14,14,14,14,14,14,14,14,14,14,14,14,14,14,14,14,14,15,15,15,15,15,15,15,15,15,15,15,15,15,15,15,15,15,15,15,15,15,15,16,16,16,16,16,16,16,16,16,16,16,16,16,16,16,16,16,16,17,17,17,17,17,17,17,17,17,17,17,17,18,18,18,18,18,18,18,18,18,18,18,18,18,19,19,19,19,19,19,19,19,20,20,20,20,20,20,20,20,20,20,20,20,21,21,21,21,21,21,21,21,21,21,21,21,22,22,22,22,22,22,22,22,22,22,23,23,23,23,23,23,23,23,23,23,24,24,24,24,24,24,24,24,24,25,25,25,25,25,25,25,25,25,26,26,26,26,26,26,26,26,26,26,26,26,26,26,27,27,27,27,27,27,27,27,28,28,28,28,28,28,28,29,29,29,29,29,29,29,29,29,30,30,30,30,30,30,31,31,31,31,31,31,32,32,32,32,32,32,32,32,33,33,34,34,34,34,35,35,36,36,36,36,37,38,39,39,40];
unsucc = [3,4,8,4,5,6,7,8,9,10,11,12,13,14,15,16,17,18,19,20,21,22,23,24,25,26,27,28,30,31,32,34,5,6,7,9,10,11,14,15,16,17,18,19,22,24,32,33,6,7,8,9,10,12,14,15,17,20,22,24,27,32,7,8,9,10,11,12,13,14,16,18,19,21,22,27,29,33,34,8,11,13,15,16,17,18,19,20,21,23,24,25,26,29,31,32,36,9,10,11,14,15,16,17,18,19,20,22,23,24,26,31,32,33,11,12,13,15,16,17,18,19,20,21,22,23,24,25,26,27,28,29,31,32,33,34,36,41,11,12,13,15,16,17,18,19,20,21,22,23,24,25,26,27,28,29,31,32,33,34,36,41,12,14,15,17,18,19,20,22,23,24,25,26,27,28,32,33,13,14,15,16,17,18,19,20,21,22,23,24,25,26,28,29,30,31,32,33,35,36,14,15,16,17,18,19,20,22,23,24,25,26,27,28,30,31,32,33,34,15,16,17,18,19,20,21,22,23,24,25,26,27,28,29,31,32,33,34,36,41,16,17,18,19,20,21,22,23,24,25,27,28,29,30,31,32,33,34,35,37,38,39,17,18,19,20,21,22,23,24,25,26,27,28,29,32,33,34,36,41,18,19,21,22,26,27,29,32,33,34,36,41,19,20,21,22,23,24,26,27,29,31,32,34,36,20,22,24,25,27,32,33,34,21,22,24,25,26,27,29,32,33,34,36,41,22,23,24,25,26,27,28,30,31,32,33,34,23,24,25,26,27,29,31,32,34,36,24,25,26,27,29,32,33,34,36,41,26,27,29,31,32,33,34,36,41,26,27,29,31,32,33,34,36,41,27,28,29,30,31,32,33,34,35,36,37,38,39,41,28,29,30,31,32,33,35,36,29,31,32,33,34,36,41,30,31,32,33,34,35,37,38,39,31,32,33,34,36,41,32,33,34,35,36,41,33,34,35,36,37,38,40,41,34,36,35,36,37,41,36,41,37,38,39,40,41,41,40,41,41];

USEFUL_RES = [{},
	{1,2,5,6,7,8,9,10,11,13,14,15,16,17,18,19},
	{1,4,5,6,7,8,9,10,11,14,15,16,17,18,19,20},
	{1,4,5,6,7,8,9,10,11,14,15,16,17,18,19,20},
	{1,4,5,6,7,8,9,10,11,14,15,16,17,18,19,20},
	{1,3,4,5,6,9,10,11,12,13,14,17,18,19,20},
	{1,2,4,5,6,9,10,11,13,14,18,19,20},
	{1,2,5,6,7,8,9,10,11,13,14,15,16,17,18,19},
	{1,2,4,5,6,9,10,11,13,14,18,19,20},
	{1,3,4,5,6,7,8,9,10,11,12,13,14,15,16,17,18,20},
	{1,3,4,5,6,9,10,11,12,13,14,17,18,19,20},
	{1,2,4,5,6,9,10,11,13,14,18,19,20},
	{1,3,4,5,6,7,8,9,10,11,12,13,14,15,16,17,18,20},
	{1,2,3,4,5,9,10,11,12,13,17,18,19,20},
	{1,2,5,6,7,8,9,10,11,13,14,15,16,17,18,19},
	{1,2,3,4,5,9,10,11,12,13,17,18,19,20},
	{1,2,5,6,7,8,9,10,11,13,14,15,16,17,18,19},
	{1,2,3,4,5,9,10,11,12,13,17,18,19,20},
	{1,2,5,6,7,8,9,10,11,13,14,15,16,17,18,19},
	{1,3,4,5,6,9,10,11,12,13,14,17,18,19,20},
	{1,3,4,5,6,9,10,11,12,13,14,17,18,19,20},
	{1,2,5,6,7,8,9,10,11,13,14,15,16,17,18,19},
	{1,4,5,6,7,8,9,10,11,14,15,16,17,18,19,20},
	{1,2,5,6,7,8,9,10,11,13,14,15,16,17,18,19},
	{1,2,4,5,6,9,10,11,13,14,18,19,20},
	{1,4,5,6,7,8,9,10,11,14,15,16,17,18,19,20},
	{1,2,5,6,7,8,9,10,11,13,14,15,16,17,18,19},
	{1,2,3,4,5,9,10,11,12,13,17,18,19,20},
	{1,2,4,5,6,9,10,11,13,14,18,19,20},
	{1,3,4,5,6,9,10,11,12,13,14,17,18,19,20},
	{1,4,5,6,7,8,9,10,11,14,15,16,17,18,19,20},
	{1,2,5,6,7,8,9,10,11,13,14,15,16,17,18,19},
	{1,3,4,5,6,9,10,11,12,13,14,17,18,19,20},
	{1,3,4,5,6,9,10,11,12,13,14,17,18,19,20},
	{1,3,4,5,6,9,10,11,12,13,14,17,18,19,20},
	{1,2,4,5,6,9,10,11,13,14,18,19,20},
	{1,3,4,5,6,7,8,9,10,11,12,13,14,15,16,17,18,20},
	{1,4,5,6,7,8,9,10,11,14,15,16,17,18,19,20},
	{1,2,4,5,6,9,10,11,13,14,18,19,20},
	{1,4,5,6,7,8,9,10,11,14,15,16,17,18,19,20},
	{1,3,4,5,6,7,8,9,10,11,12,13,14,15,16,17,18,20},
	{}];

POTENTIAL_ACT = [{2,3,4,5,6,7,8,9,10,11,12,13,14,15,16,17,18,19,20,21,22,23,24,25,26,27,28,29,30,31,32,33,34,35,36,37,38,39,40,41},
	{2,7,8,9,12,14,15,16,17,18,19,22,24,25,27,28,29,32,36,39},
	{6,10,11,13,14,16,18,20,21,28,30,33,34,35,37,41},
	{3,4,5,6,7,9,10,11,12,13,14,16,18,20,21,23,25,26,28,29,30,31,33,34,35,36,37,38,39,40,41},
	{2,3,4,5,6,7,8,9,10,11,12,13,14,15,16,17,18,19,20,21,22,23,24,25,26,27,28,29,30,31,32,33,34,35,36,37,38,39,40,41},
	{2,3,4,5,6,7,8,9,10,11,12,13,15,17,19,20,21,22,23,24,25,26,27,29,30,31,32,33,34,35,36,37,38,39,40,41},
	{2,3,4,5,8,10,13,15,17,19,22,23,24,26,27,31,32,37,38,40,41},
	{2,3,4,5,8,10,13,15,17,19,22,23,24,26,27,31,32,37,38,40,41},
	{2,3,4,5,6,7,8,9,10,11,12,13,14,15,16,17,18,19,20,21,22,23,24,25,26,27,28,29,30,31,32,33,34,35,36,37,38,39,40,41},
	{2,3,4,5,6,7,8,9,10,11,12,13,14,15,16,17,18,19,20,21,22,23,24,25,26,27,28,29,30,31,32,33,34,35,36,37,38,39,40,41},
	{2,3,4,5,6,7,8,9,10,11,12,13,14,15,16,17,18,19,20,21,22,23,24,25,26,27,28,29,30,31,32,33,34,35,36,37,38,39,40,41},
	{6,10,11,13,14,16,18,20,21,28,30,33,34,35,37,41},
	{2,6,7,8,9,10,11,12,13,14,15,16,17,18,19,20,21,22,24,25,27,28,29,30,32,33,34,35,36,37,39,41},
	{2,3,4,5,6,7,8,9,10,11,12,13,15,17,19,20,21,22,23,24,25,26,27,29,30,31,32,33,34,35,36,37,38,39,40,41},
	{2,3,4,5,8,10,13,15,17,19,22,23,24,26,27,31,32,37,38,40,41},
	{2,3,4,5,8,10,13,15,17,19,22,23,24,26,27,31,32,37,38,40,41},
	{2,3,4,5,6,8,10,11,13,14,15,16,17,18,19,20,21,22,23,24,26,27,28,30,31,32,33,34,35,37,38,40,41},
	{2,3,4,5,6,7,8,9,10,11,12,13,14,15,16,17,18,19,20,21,22,23,24,25,26,27,28,29,30,31,32,33,34,35,36,37,38,39,40,41},
	{2,3,4,5,6,7,8,9,11,12,14,15,16,17,18,19,20,21,22,23,24,25,26,27,28,29,30,31,32,33,34,35,36,38,39,40},
	{3,4,5,6,7,9,10,11,12,13,14,16,18,20,21,23,25,26,28,29,30,31,33,34,35,36,37,38,39,40,41}];
